num_features = 15;
num_usage_limits = 0;
num_plans = 3;
num_addons = 0;

features = ["documents","spreadsheets","groupChat","1to1messages","desktopAccess","tabletAccess","mobileAccess","customAndAdvancedLiveApps","singleSignOn","enterpriseAPI","customization","integratedChatWithinSalesforce","spreadsheetsWithLiveSalesforceData","twoWaySyncWithLiveSalesforceData","embedDocumentsInAllSalesforceObjects"];
usage_limits = [];
plans = ["STARTER","PLUS","ADVANCED"];
addons = [];

plans_prices = [12,25,100];
addons_prices = [];

linked_features = array2d(USAGE_LIMITS, FEATURES, [
]);

plans_features = array2d(PLANS, FEATURES, [
    % STARTER
    1,1,1,1,1,1,1,0,0,0,0,0,0,0,0,
    % PLUS
    1,1,1,1,1,1,1,1,1,1,1,0,0,0,0,
    % ADVANCED
    1,1,1,1,1,1,1,1,1,1,1,1,1,1,1
]);
plans_usage_limits = array2d(PLANS, USAGE_LIMITS, [
]);

addons_features = array2d(ADDONS, FEATURES, [
]);
addons_usage_limits = array2d(ADDONS, USAGE_LIMITS, [
]);
addons_usage_limits_extensions = array2d(ADDONS, USAGE_LIMITS, [
]);
addons_available_for = array2d(ADDONS, PLANS, [
]);
addons_depends_on = array2d(ADDONS, ADDONS, [
]);
